Using license file /home/anupa/gurobi.lic
Academic license - for non-commercial use only

Gurobi Optimizer version 9.0.0 build v9.0.0rc2 (linux64)
Optimize a model with 10 rows, 11 columns and 19 nonzeros
Model fingerprint: 0x3cd37993
Model has 2 general constraints
Variable types: 11 continuous, 0 integer (0 binary)
Coefficient statistics:
  Matrix range     [1e+00, 5e+00]
  Objective range  [1e+00, 1e+00]
  Bounds range     [1e+00, 3e+04]
  RHS range        [1e+00, 5e+01]

---------------------------------------------------------------------------
Multi-objectives: starting optimization with 4 objectives ... 
---------------------------------------------------------------------------

Multi-objectives: applying initial presolve ...
---------------------------------------------------------------------------

Presolve removed 7 rows and 7 columns
Presolve time: 0.00s
Presolved: 3 rows and 4 columns
---------------------------------------------------------------------------

Multi-objectives: optimize objective 1 (tot_mem_cpu) ...
---------------------------------------------------------------------------

Presolve removed 3 rows and 4 columns
Presolve time: 0.00s
Presolve: All rows and columns removed
Iteration    Objective       Primal Inf.    Dual Inf.      Time
       0    0.0000000e+00   0.000000e+00   0.000000e+00      0s

Solved in 0 iterations and 0.00 seconds
Optimal objective  0.000000000e+00
---------------------------------------------------------------------------

Multi-objectives: optimize objective 2 (cpu_mem_load) ...
---------------------------------------------------------------------------

Presolve removed 4 rows and 4 columns
Presolve time: 0.00s
Presolve: All rows and columns removed
Iteration    Objective       Primal Inf.    Dual Inf.      Time
       0    0.0000000e+00   0.000000e+00   0.000000e+00      0s

Solved in 0 iterations and 0.00 seconds
Optimal objective  0.000000000e+00
---------------------------------------------------------------------------

Multi-objectives: optimize objective 3 (tot_mem_p4) ...
---------------------------------------------------------------------------

Presolve removed 5 rows and 4 columns
Presolve time: 0.00s
Presolve: All rows and columns removed
Iteration    Objective       Primal Inf.    Dual Inf.      Time
       0    5.0976552e+00   0.000000e+00   0.000000e+00      0s

Solved in 0 iterations and 0.00 seconds
Optimal objective  5.097655250e+00
---------------------------------------------------------------------------

Multi-objectives: optimize objective 4 (p4_mem_load) ...
---------------------------------------------------------------------------

Presolve removed 6 rows and 4 columns
Presolve time: 0.00s
Presolve: All rows and columns removed
Iteration    Objective       Primal Inf.    Dual Inf.      Time
       0    5.0976552e+00   0.000000e+00   0.000000e+00      0s

Solved in 0 iterations and 0.00 seconds
Optimal objective  5.097655250e+00

---------------------------------------------------------------------------
Multi-objectives: solved in 0.00 seconds, solution count 2

--------------------------------------------------
Model update took: 3.075599670410156e-05 seconds
Model optimize took: 0.0010035037994384766 seconds
--------------------------------------------------

Solution quality statistics for model netmon :
  Maximum violation:
    Bound       : 0.00000000e+00
    Constraint  : 0.00000000e+00
    Integrality : 0.00000000e+00

Sketch (0) (cm: eps0: 0.00625, del0: 0.05, min_mem: 1.69921875)
Par: 1, Rows: 3
0.000    1.000    
Total frac: 1.000

Device (0) cpu_1:
Rows total: 5.885645977011494e-07
Mem total: 1.0001e-06

Device (1) p4_1:
Rows total: 2.999999411435402
Mem total: 5.0976552499
--------------------------------------------------
Changed value of parameter NonConvex to 2
   Prev: -1  Min: -1  Max: 2  Default: -1

Throughput: 93.33333333333333 Mpps, ns per packet: 10.714285714285715
Resources: 60.8562010038984

Sketch (0) (cm: eps0: 0.00625, del0: 0.05, min_mem: 1.69921875)
Par: 1, Rows: 3
0.000    1.000    
Total frac: 1.000

Device (0) cpu_1:
cores_sketch: 0.0, cores_dpdk: 5.9999999999999964
Rows total: 0
Mem total: 0.0
Throughput: 93.33333333333333

Device (1) p4_1:
Rows total: 2.999999411435402
Mem total: 5.0976552499
Throughput: 148.0
--------------------------------------------------
